100
1000
200
200
200
200
199
198
197
197
197
196
196
195
195
194
194
194
193
193
193
192
192
191
191
190
190
189
189
188
187
187
186
186
186
185
184
183
183
183
182
182
182
180
180
180
179
179
179
179
178
175
175
174
173
172
171
170
170
169
169
169
168
168
168
168
168
168
168
167
166
166
166
166
165
163
163
162
162
162
162
161
159
158
158
158
157
157
156
155
155
155
155
155
154
153
153
153
151
150
150
150
